c FILE /home/rafael/Documents/HappySet/MIHS/inputs/happygen/output/graph_scale_free_k20_p0.3_v100_20241127_083929.txt
c SOURCE This is a scale-free graph formed for the happy graph colouring problem.
c DESCRIPTION It was generated using the problem generator of Rhyd Lewis
c
c GRAPH STATS
c Seed                             = -1173445548
c Number of Nodes                  = 100
c Number of colours k              = 20
c Number of pre-assignments        = 30
c Number of links per new node     = 5
c Density                          = 0.0979798
c 
c The degrees of nodes 1 to 100, respectively, are as follows 
c [40, 37, 34, 32, 26, 25, 23, 19, 19, 19, 16, 16, 16, 15, 14, 13, 13, 13, 12, 12, 12, 11, 11, 11, 11, 11, 
c  11, 10, 10, 10, 10, 10, 10, 10, 10, 10, 9, 9, 9, 9, 8, 8, 8, 8, 8, 8, 7, 7, 7, 7, 7, 
c  7, 7, 7, 7, 6, 6, 6, 6, 6, 6, 6, 6, 6, 6, 6, 6, 6, 6, 6, 6, 5, 5, 5, 5, 5, 
c  5, 5, 5, 5, 5, 5, 5, 5, 5, 5, 5, 5, 5, 5, 5, 5, 5, 5, 5, 5, 5, 5, 5, 5] 
c  
p edge 100 485 20
e 1 2
e 1 3
e 1 4
e 1 5
e 1 6
e 1 8
e 1 9
e 1 10
e 1 11
e 1 12
e 1 13
e 1 14
e 1 15
e 1 16
e 1 17
e 1 18
e 1 20
e 1 22
e 1 23
e 1 28
e 1 29
e 1 31
e 1 33
e 1 35
e 1 37
e 1 40
e 1 46
e 1 50
e 1 51
e 1 56
e 1 57
e 1 65
e 1 66
e 1 69
e 1 71
e 1 72
e 1 83
e 1 85
e 1 92
e 1 95
e 2 3
e 2 4
e 2 6
e 2 7
e 2 8
e 2 9
e 2 10
e 2 11
e 2 12
e 2 14
e 2 15
e 2 16
e 2 24
e 2 29
e 2 32
e 2 35
e 2 37
e 2 41
e 2 45
e 2 46
e 2 47
e 2 48
e 2 52
e 2 57
e 2 60
e 2 62
e 2 64
e 2 70
e 2 71
e 2 73
e 2 75
e 2 77
e 2 81
e 2 82
e 2 89
e 2 96
e 3 5
e 3 6
e 3 8
e 3 9
e 3 11
e 3 13
e 3 14
e 3 15
e 3 20
e 3 22
e 3 24
e 3 25
e 3 28
e 3 33
e 3 36
e 3 44
e 3 45
e 3 47
e 3 49
e 3 50
e 3 52
e 3 53
e 3 54
e 3 60
e 3 69
e 3 76
e 3 85
e 3 90
e 3 92
e 3 93
e 3 94
e 3 99
e 4 5
e 4 6
e 4 7
e 4 8
e 4 9
e 4 13
e 4 14
e 4 16
e 4 17
e 4 20
e 4 21
e 4 23
e 4 24
e 4 26
e 4 29
e 4 32
e 4 37
e 4 39
e 4 42
e 4 43
e 4 45
e 4 47
e 4 48
e 4 49
e 4 59
e 4 66
e 4 68
e 4 69
e 4 75
e 4 94
e 5 6
e 5 8
e 5 12
e 5 14
e 5 23
e 5 25
e 5 26
e 5 28
e 5 34
e 5 37
e 5 42
e 5 45
e 5 50
e 5 54
e 5 55
e 5 62
e 5 67
e 5 73
e 5 77
e 5 79
e 5 83
e 5 87
e 5 88
e 6 7
e 6 8
e 6 9
e 6 11
e 6 16
e 6 19
e 6 20
e 6 22
e 6 27
e 6 29
e 6 30
e 6 32
e 6 41
e 6 43
e 6 44
e 6 58
e 6 60
e 6 70
e 6 72
e 6 77
e 7 8
e 7 9
e 7 15
e 7 16
e 7 20
e 7 28
e 7 31
e 7 33
e 7 34
e 7 42
e 7 47
e 7 51
e 7 52
e 7 53
e 7 63
e 7 74
e 7 75
e 7 82
e 7 89
e 7 97
e 8 9
e 8 19
e 8 22
e 8 24
e 8 25
e 8 30
e 8 42
e 8 59
e 8 72
e 8 76
e 8 81
e 8 99
e 9 15
e 9 19
e 9 21
e 9 23
e 9 32
e 9 46
e 9 48
e 9 61
e 9 62
e 9 73
e 9 76
e 9 90
e 10 12
e 10 16
e 10 20
e 10 21
e 10 30
e 10 34
e 10 38
e 10 40
e 10 43
e 10 61
e 10 63
e 10 80
e 10 82
e 10 84
e 10 87
e 10 90
e 10 93
e 11 12
e 11 14
e 11 19
e 11 22
e 11 24
e 11 25
e 11 32
e 11 37
e 11 43
e 11 68
e 11 78
e 11 97
e 12 17
e 12 19
e 12 26
e 12 33
e 12 41
e 12 48
e 12 58
e 12 59
e 12 63
e 12 65
e 12 67
e 13 14
e 13 15
e 13 17
e 13 26
e 13 31
e 13 38
e 13 39
e 13 45
e 13 58
e 13 66
e 13 68
e 13 83
e 13 98
e 14 18
e 14 21
e 14 40
e 14 44
e 14 50
e 14 54
e 14 55
e 14 76
e 15 18
e 15 23
e 15 27
e 15 44
e 15 77
e 15 80
e 15 84
e 15 98
e 16 26
e 16 28
e 16 41
e 16 44
e 16 47
e 16 52
e 16 56
e 17 37
e 17 38
e 17 51
e 17 61
e 17 64
e 17 74
e 17 77
e 17 84
e 17 96
e 18 29
e 18 41
e 18 42
e 18 51
e 18 54
e 18 57
e 18 60
e 18 79
e 18 93
e 18 97
e 19 22
e 19 39
e 19 46
e 19 49
e 19 53
e 19 85
e 19 98
e 20 21
e 20 25
e 20 35
e 20 72
e 20 79
e 20 86
e 21 39
e 21 49
e 21 57
e 21 79
e 21 81
e 21 86
e 21 100
e 22 27
e 22 68
e 22 72
e 22 73
e 22 74
e 23 29
e 23 30
e 23 31
e 23 38
e 23 64
e 23 70
e 24 31
e 24 40
e 24 62
e 24 73
e 24 90
e 24 94
e 25 33
e 25 35
e 25 43
e 25 53
e 25 78
e 25 95
e 26 36
e 26 78
e 26 81
e 26 83
e 26 89
e 26 96
e 27 34
e 27 43
e 27 64
e 27 78
e 27 79
e 27 91
e 27 94
e 27 95
e 28 48
e 28 55
e 28 58
e 28 60
e 28 84
e 29 34
e 29 39
e 29 93
e 29 99
e 30 46
e 30 48
e 30 49
e 30 84
e 30 88
e 30 100
e 31 59
e 31 76
e 31 83
e 31 89
e 31 100
e 32 52
e 32 61
e 32 68
e 32 80
e 32 88
e 33 35
e 33 55
e 33 63
e 33 82
e 33 92
e 34 38
e 34 61
e 34 67
e 34 74
e 34 92
e 35 36
e 35 65
e 35 67
e 35 74
e 35 100
e 36 44
e 36 47
e 36 55
e 36 64
e 36 66
e 36 94
e 36 96
e 37 38
e 37 56
e 37 59
e 38 50
e 38 56
e 38 57
e 39 71
e 39 91
e 39 92
e 39 95
e 40 53
e 40 82
e 40 85
e 40 97
e 40 99
e 41 47
e 41 51
e 41 91
e 42 70
e 42 75
e 42 88
e 43 80
e 43 87
e 44 96
e 44 97
e 45 54
e 45 65
e 45 100
e 46 67
e 46 88
e 46 95
e 48 58
e 49 65
e 49 87
e 50 56
e 50 75
e 51 53
e 51 63
e 52 62
e 52 86
e 53 86
e 54 69
e 54 89
e 55 90
e 55 91
e 56 86
e 57 87
e 58 81
e 59 69
e 60 99
e 61 71
e 62 78
e 63 80
e 64 85
e 65 66
e 66 91
e 67 71
e 68 70
e 69 98
e 70 93
e 71 98
n 7 2
n 11 14
n 13 13
n 27 7
n 33 2
n 36 1
n 37 14
n 39 13
n 40 9
n 41 11
n 42 2
n 46 12
n 49 10
n 50 3
n 54 4
n 58 13
n 61 19
n 62 8
n 65 10
n 73 15
n 74 2
n 76 18
n 77 6
n 79 7
n 85 9
n 86 5
n 90 17
n 93 16
n 96 1
n 100 20
